32
313
11 3 7 9 10 11 12 13 16 19 24 113
11 3 7 9 10 11 12 13 16 19 24 113
11 4 8 11 14 15 16 17 18 20 25 114
13 0 1 4 8 11 14 15 16 17 18 20 25 114
13 2 3 12 17 19 20 21 22 23 26 29 34 114
11 12 17 19 20 21 22 23 26 29 34 115
11 13 18 21 24 25 26 27 28 30 35 115
13 0 1 13 18 21 24 25 26 27 28 30 35 115
13 2 3 22 27 29 30 31 32 33 36 39 44 115
13 0 1 22 27 29 30 31 32 33 36 39 44 116
13 0 1 23 28 31 34 35 36 37 38 40 45 116
15 0 1 2 3 23 28 31 34 35 36 37 38 40 45 116
14 0 1 4 5 32 37 39 40 41 42 43 49 55 116
21 0 1 6 7 32 33 37 38 39 40 42 43 44 45 47 48 49 50 55 56 116
21 2 3 32 33 37 38 39 40 41 42 43 44 45 46 47 48 49 50 55 56 117
15 2 3 42 47 49 50 51 52 53 54 57 61 66 71 117
17 0 1 2 3 42 47 49 50 51 52 53 54 57 61 66 71 117
17 2 3 4 5 43 48 51 55 56 57 58 59 60 62 67 72 117
17 2 3 6 7 43 48 51 55 56 57 58 59 60 62 67 72 117
15 0 1 4 5 52 58 61 62 63 64 65 68 73 78 118
23 2 3 4 5 52 53 58 59 61 62 63 64 65 66 67 68 69 70 73 74 78 79 118
21 4 5 6 7 52 53 58 59 61 62 63 65 66 67 69 70 73 74 78 79 118
19 4 5 8 9 54 60 63 69 71 72 73 74 75 76 77 80 83 88 118
19 4 5 10 11 54 60 63 69 71 72 73 74 75 76 77 80 83 88 118
15 0 1 6 7 65 70 75 78 79 80 81 82 84 89 119
15 2 3 6 7 65 70 75 78 79 80 81 82 84 89 119
15 4 5 6 7 76 81 83 84 85 86 87 90 93 98 119
15 6 7 8 9 76 81 83 84 85 86 87 90 93 98 119
15 6 7 10 11 77 82 85 88 89 90 91 92 94 99 119
15 4 5 8 9 77 82 85 88 89 90 91 92 94 99 120
15 6 7 8 9 86 91 93 94 95 96 97 100 103 108 120
15 8 9 10 11 86 91 93 94 95 96 97 100 103 108 120
16 8 9 12 13 14 87 92 95 98 99 100 101 102 104 109 120
15 8 9 13 14 87 92 95 98 99 100 101 102 104 109 120
15 4 5 10 11 96 101 103 104 105 106 107 110 113 118 121
15 6 7 10 11 96 101 103 104 105 106 107 110 113 118 121
15 8 9 10 11 97 102 105 108 109 110 111 112 114 119 121
16 10 11 12 13 14 97 102 105 108 109 110 111 112 114 119 121
14 10 11 13 14 106 111 113 114 115 116 117 123 128 121
22 8 9 12 13 14 106 107 111 112 113 114 116 117 118 119 121 122 123 124 128 129 122
24 10 11 12 13 14 106 107 111 112 113 114 115 116 117 118 119 120 121 122 123 124 128 129 122
13 12 14 116 121 123 124 125 126 127 130 136 139 122
16 12 13 14 15 16 116 121 123 124 125 126 127 130 136 139 122
22 12 13 14 17 18 117 122 125 128 129 130 131 132 133 134 135 137 140 144 148 154 122
21 8 9 13 14 117 122 125 128 129 130 131 132 133 134 135 137 140 144 148 154 123
11 10 11 13 14 126 131 136 137 138 141 123
8 14 126 131 136 137 138 141 123
15 13 14 15 16 127 132 138 139 140 141 142 143 145 149 123
16 13 14 17 18 127 132 138 139 140 141 142 143 145 149 213 123
14 12 13 14 15 16 133 142 144 145 146 147 150 155 124
13 13 14 15 16 133 142 144 145 146 147 150 155 124
17 15 16 17 18 134 143 146 148 149 150 151 152 153 156 159 164 124
18 15 16 19 20 21 134 143 146 148 149 150 151 152 153 156 159 164 124
15 15 16 20 21 135 147 151 154 155 156 157 158 160 165 124
31 15 16 22 23 135 147 151 152 154 155 156 157 158 159 160 161 162 163 165 166 168 169 171 175 176 177 178 179 181 187 124
32 12 13 14 17 18 135 147 151 152 154 155 156 157 158 159 160 161 162 163 165 166 168 169 171 175 176 177 178 179 181 187 125
15 13 14 17 18 153 158 161 164 165 166 167 168 170 176 125
15 15 16 17 18 153 158 161 164 165 166 167 168 170 176 125
18 17 18 19 20 21 162 167 169 170 171 172 173 174 177 180 186 190 125
17 17 18 20 21 162 167 169 170 171 172 173 174 177 180 186 190 125
15 17 18 22 23 163 168 171 175 176 177 178 179 181 187 125
18 15 16 19 20 21 172 178 180 181 182 183 184 185 188 191 197 200 126
18 17 18 19 20 21 172 178 180 181 182 183 184 185 188 191 197 200 126
14 19 20 21 22 23 173 179 182 186 187 188 189 192 126
11 19 20 173 179 182 186 187 188 189 192 126
20 19 20 21 24 25 174 183 189 190 191 192 193 194 195 196 198 201 205 210 126
19 15 16 20 21 174 183 189 190 191 192 193 194 195 196 198 201 205 210 127
11 17 18 20 21 184 193 197 198 199 202 127
9 19 20 184 193 197 198 199 202 127
15 20 21 22 23 185 194 199 200 201 202 203 204 206 211 127
15 20 21 24 25 185 194 199 200 201 202 203 204 206 211 127
15 15 16 22 23 195 203 205 206 207 208 209 212 215 220 128
15 17 18 22 23 195 203 205 206 207 208 209 212 215 220 128
15 19 20 21 22 23 196 204 207 210 211 212 214 216 221 128
15 20 21 22 23 196 204 207 210 211 212 213 214 216 221 128
15 22 23 24 25 208 213 215 216 217 218 219 222 225 230 128
15 22 23 26 27 208 213 215 216 217 218 219 222 225 230 128
15 22 23 28 29 209 214 217 220 221 222 223 224 226 231 128
16 19 20 21 24 25 209 214 217 220 221 222 223 224 226 231 129
15 20 21 24 25 218 223 225 226 227 228 229 232 236 240 129
16 22 23 24 25 218 219 223 225 226 227 228 229 232 236 240 129
17 24 25 26 27 219 224 227 230 231 232 233 234 235 237 241 246 129
16 24 25 28 29 224 227 230 231 232 233 234 235 237 241 246 129
21 22 23 26 27 228 229 233 234 236 237 239 240 241 243 244 245 247 248 251 256 130
21 24 25 26 27 228 229 233 234 236 237 239 240 241 243 244 245 247 248 251 256 130
17 26 27 28 29 229 234 238 240 241 242 243 244 245 248 251 256 130
15 26 27 30 31 235 239 243 246 247 248 249 250 252 257 130
15 26 27 32 33 235 239 243 246 247 248 249 250 252 257 130
15 22 23 28 29 244 249 251 252 253 254 255 258 262 271 131
15 24 25 28 29 244 249 251 252 253 254 255 258 262 271 131
17 26 27 28 29 245 250 253 256 257 258 259 260 261 263 266 272 131
17 28 29 30 31 245 250 253 256 257 258 259 260 261 263 266 272 131
13 28 29 32 33 254 259 262 263 264 265 267 273 131
13 26 27 30 31 254 259 262 263 264 265 267 273 132
15 28 29 30 31 260 264 266 267 268 269 270 274 277 282 132
15 30 31 32 33 260 264 266 267 268 269 270 274 277 282 132
17 30 31 34 35 255 261 265 268 271 272 273 274 275 276 278 283 132
17 30 31 36 37 255 261 265 268 271 272 273 274 275 276 278 283 132
15 26 27 32 33 269 275 277 278 279 280 281 284 287 292 133
15 28 29 32 33 269 275 277 278 279 280 281 284 287 292 133
15 30 31 32 33 270 276 279 282 283 284 285 286 288 293 133
15 32 33 34 35 270 276 279 282 283 284 285 286 288 293 133
15 32 33 36 37 280 285 287 288 289 290 291 294 297 302 133
15 30 31 34 35 280 285 287 288 289 290 291 294 297 302 134
15 32 33 34 35 281 286 289 292 293 294 295 296 298 303 134
15 34 35 36 37 281 286 289 292 293 294 295 296 298 303 134
16 34 35 38 39 40 290 295 297 298 299 300 301 304 307 310 134
15 34 35 39 40 290 295 297 298 299 300 301 304 307 310 134
19 30 31 36 37 291 296 299 300 302 303 304 305 306 307 308 309 311 312 135
19 32 33 36 37 291 296 299 300 302 303 304 305 306 307 308 309 311 312 135
11 34 35 36 37 300 305 307 308 309 312 135
12 36 37 38 39 40 301 306 309 310 311 312 135
11 36 37 39 40 301 306 309 310 311 312 135
8 34 35 38 39 40 0 1 136
9 36 37 38 39 40 2 3 4 136
7 38 40 5 6 7 8 136
11 38 39 40 41 42 9 10 11 12 13 136
11 38 39 40 43 44 14 15 16 17 18 136
10 34 35 39 40 19 20 21 22 23 137
10 36 37 39 40 24 25 26 27 28 137
7 40 29 30 31 32 33 137
10 39 40 41 42 34 35 36 37 38 137
10 39 40 43 44 39 40 41 42 43 137
11 38 39 40 41 42 44 45 46 47 48 138
11 39 40 41 42 49 50 51 52 53 54 138
11 41 42 43 44 55 56 57 58 59 60 138
10 41 42 45 46 61 62 63 64 65 138
10 41 42 47 48 66 67 68 69 70 138
13 38 39 40 43 44 71 72 73 74 75 76 77 139
10 39 40 43 44 78 79 80 81 82 139
10 41 42 43 44 83 84 85 86 87 139
10 43 44 45 46 88 89 90 91 92 139
10 43 44 47 48 93 94 95 96 97 139
10 43 44 49 50 98 99 100 101 102 139
10 43 44 51 52 103 104 105 106 107 139
11 43 44 53 54 55 108 109 110 111 112 139
10 41 42 45 46 113 114 115 116 117 140
10 43 44 45 46 118 119 120 121 122 140
10 45 46 47 48 123 124 125 126 127 140
13 41 42 47 48 128 129 130 131 132 133 134 135 141
8 43 44 47 48 136 137 138 141
8 45 46 47 48 139 140 142 143
9 47 48 49 50 141 144 145 146 147
11 47 48 51 52 141 148 149 150 151 152 153
10 43 44 49 50 142 154 155 156 157 158
10 47 48 49 50 142 159 160 161 162 163
10 49 50 51 52 142 164 165 166 167 168
12 49 50 53 54 55 142 169 170 171 172 173 174
10 43 44 51 52 143 175 176 177 178 179
11 47 48 51 52 143 180 181 182 183 184 185
9 49 50 51 52 143 186 187 188 189
13 51 52 53 54 55 143 190 191 192 193 194 195 196
8 51 52 54 55 143 197 198 199
10 51 52 56 57 143 200 201 202 203 204
11 43 44 53 54 55 144 205 206 207 208 209
11 49 50 53 54 55 144 210 211 212 213 214
11 51 52 53 54 55 144 215 216 217 218 219
9 53 54 55 144 220 221 222 223 224
11 53 54 55 56 57 144 225 226 227 228 229
11 51 52 54 55 145 230 231 232 233 234 235
8 53 54 55 145 236 237 238 239
11 54 55 56 57 145 240 241 242 243 244 245
10 54 55 58 59 145 246 247 248 249 250
9 54 55 60 145 251 252 253 254 255
11 51 52 56 57 146 256 257 258 259 260 261
10 53 54 55 56 57 146 262 263 264 265
10 54 55 56 57 146 266 267 268 269 270
11 56 57 58 59 146 271 272 273 274 275 276
11 54 55 56 57 60 146 277 278 279 280 281
10 54 55 58 59 147 282 283 284 285 286
10 56 57 58 59 147 287 288 289 290 291
11 54 55 58 59 60 147 292 293 294 295 296
10 58 59 61 62 147 297 298 299 300 301
10 58 59 63 64 147 302 303 304 305 306
8 58 59 65 66 147 307 308 309
7 54 55 60 148 310 311 312
6 54 55 56 57 60 148
6 54 55 58 59 60 148
6 54 55 60 61 62 148
6 54 55 60 63 64 148
5 58 59 61 62 149
6 54 55 60 61 62 149
5 61 62 63 64 149
5 61 62 65 66 149
5 61 62 67 68 149
5 61 62 69 70 149
5 58 59 63 64 150
6 54 55 60 63 64 150
5 61 62 63 64 150
5 63 64 65 66 150
5 58 59 65 66 151
5 61 62 65 66 151
5 63 64 65 66 151
5 65 66 67 68 151
5 65 66 69 70 151
5 65 66 71 72 151
5 65 66 73 74 151
5 61 62 67 68 152
5 65 66 67 68 152
5 67 68 69 70 152
5 61 62 69 70 153
5 65 66 69 70 153
5 67 68 69 70 153
5 69 70 71 72 153
5 69 70 73 74 153
5 65 66 71 72 154
5 69 70 71 72 154
5 71 72 73 74 154
5 71 72 75 76 154
5 71 72 77 78 154
5 65 66 73 74 155
5 69 70 73 74 155
5 71 72 73 74 155
5 48 74 75 76 155
5 73 74 77 78 155
5 71 72 75 76 156
5 73 74 75 76 156
5 75 76 77 78 156
5 75 76 79 80 156
5 75 76 80 81 156
5 71 72 77 78 157
5 73 74 77 78 157
5 75 76 77 78 157
5 77 78 79 80 157
5 77 78 81 82 157
5 75 76 79 80 158
5 77 78 79 80 158
5 79 80 81 82 158
5 79 80 83 84 158
6 79 80 83 84 85 158
5 75 76 81 82 159
5 77 78 81 82 159
5 79 80 81 82 159
5 81 82 83 84 159
6 81 82 83 84 85 159
5 81 82 86 87 159
5 79 80 83 84 160
5 81 82 83 84 160
2 85 160
5 83 84 86 87 160
6 79 80 83 84 85 161
6 81 82 83 84 85 161
2 85 161
6 83 84 85 86 87 161
6 83 84 85 88 89 161
6 83 84 85 90 91 161
5 81 82 86 87 162
5 83 84 86 87 162
6 83 84 85 86 87 162
5 86 87 88 89 162
5 86 87 90 91 162
6 83 84 85 88 89 163
5 86 87 88 89 163
5 88 89 90 91 163
5 88 89 92 93 163
5 88 89 96 97 163
6 83 84 85 90 91 164
5 86 87 90 91 164
5 88 89 90 91 164
5 90 91 92 93 164
5 90 91 94 95 164
5 90 91 96 97 164
5 88 89 92 93 165
5 90 91 92 93 165
5 92 93 94 95 165
5 92 93 96 97 165
5 90 91 94 95 166
5 92 93 94 95 166
5 94 95 96 97 166
5 94 95 98 99 166
5 94 95 100 101 166
5 88 89 96 97 167
5 90 91 96 97 167
5 92 93 96 97 167
5 94 95 96 97 167
5 96 97 98 99 167
5 96 97 100 101 167
5 94 95 98 99 168
5 96 97 98 99 168
5 98 99 100 101 168
5 98 99 102 103 168
5 98 99 104 105 168
5 94 95 100 101 169
5 96 97 100 101 169
5 98 99 100 101 169
5 100 101 102 103 169
5 100 101 104 105 169
5 98 99 102 103 170
5 100 101 102 103 170
5 102 103 104 105 170
5 102 103 106 107 170
5 102 103 108 109 170
5 98 99 104 105 171
5 100 101 104 105 171
5 102 103 104 105 171
5 104 105 106 107 171
5 104 105 108 109 171
5 102 103 106 107 172
5 104 105 106 107 172
5 106 107 108 109 172
6 106 107 108 109 110 172
5 106 107 111 112 172
5 102 103 108 109 173
5 104 105 108 109 173
5 106 107 108 109 173
4 108 109 110 173
5 108 109 111 112 173
6 106 107 108 109 110 174
4 108 109 110 174
6 108 109 110 111 112 174
5 106 107 111 112 175
5 108 109 111 112 175
6 108 109 110 111 112 175
